set PROD := bands coils plate;
set STAGE := reheat roll finish;

param rate: reheat	roll	finish :=
	bands 	200 	200		Infinity
	coils 	200 	120		Infinity
	plate 	200 	160 	150;

param: 		profit 	commit 	market :=
	bands 	25 		1000 	6000
	coils 	30 		500 	4000
	plate 	29 		750 	3500 ;

param avail := reheat 35 roll 40 finish 20 ;